9,8	0,0	5,8	18,5	0,0	0,0	0,0	0,0	0,0	6,8
15,8	14,9	0,0	6,8	8,9	0,0	0,0	11,7	0,0	0,0
0,0	0,0	11,6	0,0	15,9	13,7	0,0	0,0	18,7	0,0
17,9	0,0	19,8	0,0	0,0	0,0	14,8	0,0	0,0	0,0
0,0	6,1	0,0	15,9	10,4	0,0	0,0	14,0	0,0	0,0
0,0	17,6	5,4	0,0	16,9	12,2	0,0	0,0	11,9	0,0
0,0	16,1	0,0	9,5	0,0	0,0	17,6	0,0	0,0	13,0
18,4	0,0	18,5	0,0	0,0	0,0	0,0	0,0	0,0	5,7
0,0	14,7	0,0	19,4	5,7	0,0	0,0	15,6	0,0	0,0
0,0	0,0	9,3	0,0	0,0	19,3	9,8	0,0	0,0	10,5
									
3,8	2,6	3,1	4,7	3,4	4,3	2,6	4,4	4,5	4,0
